p cnf 15 22
-15 -13 -1 0
-14 -8 -3 0
14 7 4 0
14 7 2 0
-13 12 -1 0
-13 -10 -1 0
-12 -11 -7 0
12 -11 -4 0
11 -9 -3 0
-11 8 2 0
-11 6 4 0
10 -6 -4 0
-10 -6 -3 0
9 -8 7 0
-9 -8 5 0
-9 7 4 0
9 -4 -2 0
-8 -7 5 0
-8 -6 -4 0
7 6 5 0
-4 2 1 0
3 2 -1 0
